p cnf 200 1110
-101 -6 0
-101 18 0
-101 -100 0
-101 91 0
-101 93 0
-101 57 0
-101 -12 0
-101 -65 0
-101 -86 0
-101 -59 0
101 6 -18 100 -91 -93 -57 12 65 86 59 0
-102 9 0
-102 37 0
-102 -63 0
-102 -17 0
-102 76 0
-102 -22 0
-102 89 0
-102 -79 0
-102 25 0
-102 -30 0
102 -9 -37 63 17 -76 22 -89 79 -25 30 0
-103 -54 0
-103 -84 0
-103 -73 0
-103 10 0
-103 -72 0
-103 26 0
-103 -61 0
-103 -32 0
-103 47 0
-103 63 0
103 54 84 73 -10 72 -26 61 32 -47 -63 0
-104 -72 0
-104 -52 0
-104 50 0
-104 -45 0
-104 -16 0
-104 35 0
-104 6 0
-104 10 0
-104 70 0
-104 -98 0
104 72 52 -50 45 16 -35 -6 -10 -70 98 0
-105 41 0
-105 59 0
-105 48 0
-105 55 0
-105 92 0
-105 53 0
-105 -45 0
-105 -86 0
-105 -100 0
-105 -83 0
105 -41 -59 -48 -55 -92 -53 45 86 100 83 0
-106 -1 0
-106 29 0
-106 -44 0
-106 25 0
-106 -73 0
-106 -80 0
-106 -69 0
-106 40 0
-106 76 0
-106 38 0
106 1 -29 44 -25 73 80 69 -40 -76 -38 0
-107 -57 0
-107 26 0
-107 72 0
-107 -97 0
-107 20 0
-107 30 0
-107 40 0
-107 -61 0
-107 29 0
-107 10 0
107 57 -26 -72 97 -20 -30 -40 61 -29 -10 0
-108 15 0
-108 -81 0
-108 -98 0
-108 -7 0
-108 59 0
-108 67 0
-108 14 0
-108 76 0
-108 79 0
-108 12 0
108 -15 81 98 7 -59 -67 -14 -76 -79 -12 0
-109 78 0
-109 -62 0
-109 -97 0
-109 18 0
-109 -81 0
-109 21 0
-109 -76 0
-109 -32 0
-109 9 0
-109 -20 0
109 -78 62 97 -18 81 -21 76 32 -9 20 0
-110 -75 0
-110 -80 0
-110 4 0
-110 93 0
-110 -55 0
-110 99 0
-110 29 0
-110 -19 0
-110 -20 0
-110 16 0
110 75 80 -4 -93 55 -99 -29 19 20 -16 0
101 102 103 104 105 106 107 108 109 110 0
-111 -19 0
-111 53 0
-111 31 0
-111 86 0
-111 -22 0
-111 -80 0
-111 -94 0
-111 18 0
-111 -100 0
-111 46 0
111 19 -53 -31 -86 22 80 94 -18 100 -46 0
-112 10 0
-112 -11 0
-112 31 0
-112 -47 0
-112 18 0
-112 -58 0
-112 -55 0
-112 30 0
-112 69 0
-112 -84 0
112 -10 11 -31 47 -18 58 55 -30 -69 84 0
-113 79 0
-113 77 0
-113 2 0
-113 18 0
-113 -51 0
-113 58 0
-113 43 0
-113 -53 0
-113 -22 0
-113 -70 0
113 -79 -77 -2 -18 51 -58 -43 53 22 70 0
-114 54 0
-114 19 0
-114 -57 0
-114 -85 0
-114 62 0
-114 75 0
-114 -43 0
-114 100 0
-114 -95 0
-114 5 0
114 -54 -19 57 85 -62 -75 43 -100 95 -5 0
-115 -43 0
-115 45 0
-115 25 0
-115 47 0
-115 20 0
-115 86 0
-115 -44 0
-115 97 0
-115 -23 0
-115 -22 0
115 43 -45 -25 -47 -20 -86 44 -97 23 22 0
-116 -94 0
-116 -5 0
-116 -18 0
-116 -74 0
-116 15 0
-116 47 0
-116 -83 0
-116 53 0
-116 -100 0
-116 30 0
116 94 5 18 74 -15 -47 83 -53 100 -30 0
-117 -42 0
-117 43 0
-117 -88 0
-117 -28 0
-117 54 0
-117 -57 0
-117 5 0
-117 58 0
-117 -33 0
-117 -47 0
117 42 -43 88 28 -54 57 -5 -58 33 47 0
-118 -40 0
-118 77 0
-118 51 0
-118 20 0
-118 24 0
-118 73 0
-118 -63 0
-118 -49 0
-118 -42 0
-118 13 0
118 40 -77 -51 -20 -24 -73 63 49 42 -13 0
-119 65 0
-119 -82 0
-119 92 0
-119 -76 0
-119 100 0
-119 -54 0
-119 36 0
-119 49 0
-119 20 0
-119 71 0
119 -65 82 -92 76 -100 54 -36 -49 -20 -71 0
-120 -89 0
-120 -72 0
-120 32 0
-120 8 0
-120 42 0
-120 -55 0
-120 -26 0
-120 4 0
-120 9 0
-120 -5 0
120 89 72 -32 -8 -42 55 26 -4 -9 5 0
111 112 113 114 115 116 117 118 119 120 0
-121 -80 0
-121 -59 0
-121 -100 0
-121 18 0
-121 41 0
-121 94 0
-121 38 0
-121 49 0
-121 9 0
-121 -20 0
121 80 59 100 -18 -41 -94 -38 -49 -9 20 0
-122 17 0
-122 -21 0
-122 23 0
-122 90 0
-122 11 0
-122 -98 0
-122 92 0
-122 -93 0
-122 62 0
-122 -43 0
122 -17 21 -23 -90 -11 98 -92 93 -62 43 0
-123 35 0
-123 -94 0
-123 -52 0
-123 19 0
-123 -7 0
-123 64 0
-123 -90 0
-123 -1 0
-123 -88 0
-123 89 0
123 -35 94 52 -19 7 -64 90 1 88 -89 0
-124 -68 0
-124 17 0
-124 78 0
-124 -75 0
-124 -18 0
-124 89 0
-124 -28 0
-124 -21 0
-124 54 0
-124 -88 0
124 68 -17 -78 75 18 -89 28 21 -54 88 0
-125 -21 0
-125 35 0
-125 -31 0
-125 -14 0
-125 -98 0
-125 44 0
-125 46 0
-125 -61 0
-125 45 0
-125 99 0
125 21 -35 31 14 98 -44 -46 61 -45 -99 0
-126 88 0
-126 -44 0
-126 -95 0
-126 -89 0
-126 -10 0
-126 19 0
-126 -59 0
-126 -52 0
-126 -11 0
-126 -29 0
126 -88 44 95 89 10 -19 59 52 11 29 0
-127 -20 0
-127 75 0
-127 -9 0
-127 41 0
-127 -10 0
-127 -99 0
-127 -32 0
-127 -92 0
-127 65 0
-127 -95 0
127 20 -75 9 -41 10 99 32 92 -65 95 0
-128 -77 0
-128 -21 0
-128 28 0
-128 -44 0
-128 76 0
-128 -71 0
-128 79 0
-128 57 0
-128 -2 0
-128 69 0
128 77 21 -28 44 -76 71 -79 -57 2 -69 0
-129 -76 0
-129 24 0
-129 -74 0
-129 30 0
-129 -26 0
-129 -50 0
-129 51 0
-129 -68 0
-129 -85 0
-129 -70 0
129 76 -24 74 -30 26 50 -51 68 85 70 0
-130 -48 0
-130 -81 0
-130 22 0
-130 55 0
-130 -35 0
-130 -89 0
-130 32 0
-130 25 0
-130 98 0
-130 -77 0
130 48 81 -22 -55 35 89 -32 -25 -98 77 0
121 122 123 124 125 126 127 128 129 130 0
-131 -9 0
-131 -15 0
-131 -63 0
-131 54 0
-131 55 0
-131 57 0
-131 8 0
-131 -17 0
-131 -58 0
-131 -21 0
131 9 15 63 -54 -55 -57 -8 17 58 21 0
-132 -84 0
-132 57 0
-132 18 0
-132 -58 0
-132 30 0
-132 -16 0
-132 -35 0
-132 -27 0
-132 -8 0
-132 -38 0
132 84 -57 -18 58 -30 16 35 27 8 38 0
-133 79 0
-133 58 0
-133 -33 0
-133 64 0
-133 66 0
-133 86 0
-133 35 0
-133 4 0
-133 100 0
-133 -48 0
133 -79 -58 33 -64 -66 -86 -35 -4 -100 48 0
-134 9 0
-134 39 0
-134 90 0
-134 67 0
-134 -33 0
-134 -13 0
-134 -40 0
-134 60 0
-134 79 0
-134 100 0
134 -9 -39 -90 -67 33 13 40 -60 -79 -100 0
-135 5 0
-135 -2 0
-135 84 0
-135 -61 0
-135 -78 0
-135 -98 0
-135 64 0
-135 -37 0
-135 25 0
-135 -31 0
135 -5 2 -84 61 78 98 -64 37 -25 31 0
-136 64 0
-136 21 0
-136 55 0
-136 -27 0
-136 -56 0
-136 18 0
-136 -10 0
-136 -35 0
-136 13 0
-136 -100 0
136 -64 -21 -55 27 56 -18 10 35 -13 100 0
-137 -39 0
-137 -18 0
-137 19 0
-137 83 0
-137 -13 0
-137 -51 0
-137 92 0
-137 9 0
-137 -4 0
-137 2 0
137 39 18 -19 -83 13 51 -92 -9 4 -2 0
-138 47 0
-138 -84 0
-138 37 0
-138 14 0
-138 21 0
-138 86 0
-138 -100 0
-138 -66 0
-138 -95 0
-138 23 0
138 -47 84 -37 -14 -21 -86 100 66 95 -23 0
-139 93 0
-139 18 0
-139 85 0
-139 77 0
-139 34 0
-139 62 0
-139 -48 0
-139 32 0
-139 47 0
-139 43 0
139 -93 -18 -85 -77 -34 -62 48 -32 -47 -43 0
-140 -80 0
-140 -6 0
-140 -61 0
-140 40 0
-140 -90 0
-140 -39 0
-140 82 0
-140 30 0
-140 -75 0
-140 5 0
140 80 6 61 -40 90 39 -82 -30 75 -5 0
131 132 133 134 135 136 137 138 139 140 0
-141 -48 0
-141 -39 0
-141 18 0
-141 -53 0
-141 83 0
-141 69 0
-141 92 0
-141 68 0
-141 80 0
-141 -61 0
141 48 39 -18 53 -83 -69 -92 -68 -80 61 0
-142 81 0
-142 90 0
-142 64 0
-142 -100 0
-142 -23 0
-142 55 0
-142 -61 0
-142 -21 0
-142 -75 0
-142 93 0
142 -81 -90 -64 100 23 -55 61 21 75 -93 0
-143 79 0
-143 43 0
-143 -25 0
-143 91 0
-143 -49 0
-143 3 0
-143 58 0
-143 -56 0
-143 -60 0
-143 -15 0
143 -79 -43 25 -91 49 -3 -58 56 60 15 0
-144 2 0
-144 64 0
-144 -66 0
-144 -4 0
-144 94 0
-144 -77 0
-144 89 0
-144 -23 0
-144 70 0
-144 -72 0
144 -2 -64 66 4 -94 77 -89 23 -70 72 0
-145 1 0
-145 -83 0
-145 31 0
-145 73 0
-145 -93 0
-145 -53 0
-145 -70 0
-145 -98 0
-145 54 0
-145 92 0
145 -1 83 -31 -73 93 53 70 98 -54 -92 0
-146 42 0
-146 -11 0
-146 -89 0
-146 80 0
-146 58 0
-146 39 0
-146 93 0
-146 -99 0
-146 -44 0
-146 -13 0
146 -42 11 89 -80 -58 -39 -93 99 44 13 0
-147 42 0
-147 -27 0
-147 -11 0
-147 -79 0
-147 35 0
-147 -73 0
-147 -57 0
-147 95 0
-147 -44 0
-147 32 0
147 -42 27 11 79 -35 73 57 -95 44 -32 0
-148 -93 0
-148 -92 0
-148 40 0
-148 -53 0
-148 -66 0
-148 65 0
-148 -28 0
-148 -32 0
-148 25 0
-148 17 0
148 93 92 -40 53 66 -65 28 32 -25 -17 0
-149 -58 0
-149 -30 0
-149 2 0
-149 12 0
-149 -46 0
-149 -69 0
-149 71 0
-149 72 0
-149 51 0
-149 47 0
149 58 30 -2 -12 46 69 -71 -72 -51 -47 0
-150 -95 0
-150 88 0
-150 66 0
-150 26 0
-150 28 0
-150 4 0
-150 42 0
-150 32 0
-150 65 0
-150 37 0
150 95 -88 -66 -26 -28 -4 -42 -32 -65 -37 0
141 142 143 144 145 146 147 148 149 150 0
-151 -47 0
-151 -50 0
-151 -25 0
-151 -12 0
-151 -32 0
-151 -2 0
-151 13 0
-151 -36 0
-151 22 0
-151 81 0
151 47 50 25 12 32 2 -13 36 -22 -81 0
-152 -78 0
-152 -5 0
-152 -91 0
-152 -29 0
-152 -15 0
-152 -23 0
-152 -72 0
-152 18 0
-152 79 0
-152 -25 0
152 78 5 91 29 15 23 72 -18 -79 25 0
-153 -82 0
-153 -69 0
-153 -35 0
-153 71 0
-153 28 0
-153 90 0
-153 -50 0
-153 -33 0
-153 -79 0
-153 -65 0
153 82 69 35 -71 -28 -90 50 33 79 65 0
-154 87 0
-154 -46 0
-154 -32 0
-154 -82 0
-154 -73 0
-154 22 0
-154 -9 0
-154 -28 0
-154 97 0
-154 -54 0
154 -87 46 32 82 73 -22 9 28 -97 54 0
-155 -56 0
-155 -5 0
-155 8 0
-155 79 0
-155 -17 0
-155 31 0
-155 46 0
-155 -38 0
-155 36 0
-155 -24 0
155 56 5 -8 -79 17 -31 -46 38 -36 24 0
-156 -15 0
-156 -34 0
-156 -80 0
-156 -47 0
-156 -21 0
-156 -97 0
-156 81 0
-156 64 0
-156 -20 0
-156 98 0
156 15 34 80 47 21 97 -81 -64 20 -98 0
-157 -78 0
-157 51 0
-157 -36 0
-157 -81 0
-157 11 0
-157 33 0
-157 46 0
-157 -21 0
-157 -24 0
-157 25 0
157 78 -51 36 81 -11 -33 -46 21 24 -25 0
-158 -14 0
-158 -88 0
-158 -44 0
-158 -48 0
-158 26 0
-158 38 0
-158 86 0
-158 -25 0
-158 -13 0
-158 -54 0
158 14 88 44 48 -26 -38 -86 25 13 54 0
-159 62 0
-159 -45 0
-159 28 0
-159 -31 0
-159 -65 0
-159 95 0
-159 -32 0
-159 64 0
-159 -20 0
-159 -36 0
159 -62 45 -28 31 65 -95 32 -64 20 36 0
-160 53 0
-160 -80 0
-160 -20 0
-160 8 0
-160 81 0
-160 -6 0
-160 73 0
-160 -3 0
-160 -30 0
-160 -65 0
160 -53 80 20 -8 -81 6 -73 3 30 65 0
151 152 153 154 155 156 157 158 159 160 0
-161 -56 0
-161 -12 0
-161 29 0
-161 -44 0
-161 -28 0
-161 -33 0
-161 -73 0
-161 99 0
-161 -74 0
-161 47 0
161 56 12 -29 44 28 33 73 -99 74 -47 0
-162 -52 0
-162 -50 0
-162 31 0
-162 77 0
-162 -28 0
-162 81 0
-162 38 0
-162 48 0
-162 -39 0
-162 3 0
162 52 50 -31 -77 28 -81 -38 -48 39 -3 0
-163 -56 0
-163 -96 0
-163 100 0
-163 -8 0
-163 -91 0
-163 90 0
-163 -30 0
-163 -86 0
-163 -20 0
-163 76 0
163 56 96 -100 8 91 -90 30 86 20 -76 0
-164 6 0
-164 -61 0
-164 8 0
-164 -15 0
-164 -33 0
-164 -62 0
-164 -41 0
-164 -24 0
-164 -40 0
-164 -55 0
164 -6 61 -8 15 33 62 41 24 40 55 0
-165 -78 0
-165 62 0
-165 77 0
-165 32 0
-165 -47 0
-165 -73 0
-165 -16 0
-165 -30 0
-165 -53 0
-165 25 0
165 78 -62 -77 -32 47 73 16 30 53 -25 0
-166 31 0
-166 -44 0
-166 19 0
-166 -91 0
-166 100 0
-166 93 0
-166 99 0
-166 47 0
-166 -43 0
-166 -67 0
166 -31 44 -19 91 -100 -93 -99 -47 43 67 0
-167 -100 0
-167 23 0
-167 -53 0
-167 47 0
-167 -62 0
-167 -18 0
-167 94 0
-167 73 0
-167 -29 0
-167 -90 0
167 100 -23 53 -47 62 18 -94 -73 29 90 0
-168 -22 0
-168 40 0
-168 41 0
-168 12 0
-168 43 0
-168 51 0
-168 -100 0
-168 75 0
-168 -93 0
-168 -1 0
168 22 -40 -41 -12 -43 -51 100 -75 93 1 0
-169 78 0
-169 -81 0
-169 24 0
-169 -10 0
-169 -36 0
-169 -69 0
-169 -25 0
-169 31 0
-169 48 0
-169 -42 0
169 -78 81 -24 10 36 69 25 -31 -48 42 0
-170 1 0
-170 -45 0
-170 79 0
-170 6 0
-170 84 0
-170 -93 0
-170 66 0
-170 43 0
-170 30 0
-170 -22 0
170 -1 45 -79 -6 -84 93 -66 -43 -30 22 0
161 162 163 164 165 166 167 168 169 170 0
-171 63 0
-171 -75 0
-171 -2 0
-171 6 0
-171 70 0
-171 86 0
-171 -92 0
-171 -52 0
-171 10 0
-171 61 0
171 -63 75 2 -6 -70 -86 92 52 -10 -61 0
-172 -52 0
-172 -57 0
-172 60 0
-172 -53 0
-172 -83 0
-172 -42 0
-172 90 0
-172 14 0
-172 87 0
-172 20 0
172 52 57 -60 53 83 42 -90 -14 -87 -20 0
-173 25 0
-173 63 0
-173 59 0
-173 1 0
-173 -23 0
-173 86 0
-173 52 0
-173 -44 0
-173 22 0
-173 -41 0
173 -25 -63 -59 -1 23 -86 -52 44 -22 41 0
-174 42 0
-174 56 0
-174 -51 0
-174 -94 0
-174 -95 0
-174 -45 0
-174 -64 0
-174 7 0
-174 22 0
-174 60 0
174 -42 -56 51 94 95 45 64 -7 -22 -60 0
-175 -89 0
-175 66 0
-175 -9 0
-175 83 0
-175 -58 0
-175 26 0
-175 -95 0
-175 -87 0
-175 11 0
-175 -35 0
175 89 -66 9 -83 58 -26 95 87 -11 35 0
-176 -82 0
-176 39 0
-176 -94 0
-176 22 0
-176 -57 0
-176 59 0
-176 40 0
-176 -30 0
-176 83 0
-176 -58 0
176 82 -39 94 -22 57 -59 -40 30 -83 58 0
-177 84 0
-177 -72 0
-177 -54 0
-177 59 0
-177 -45 0
-177 -3 0
-177 56 0
-177 -28 0
-177 100 0
-177 52 0
177 -84 72 54 -59 45 3 -56 28 -100 -52 0
-178 -84 0
-178 57 0
-178 -47 0
-178 -22 0
-178 81 0
-178 34 0
-178 3 0
-178 -35 0
-178 82 0
-178 -80 0
178 84 -57 47 22 -81 -34 -3 35 -82 80 0
-179 -7 0
-179 -72 0
-179 100 0
-179 -92 0
-179 -25 0
-179 -40 0
-179 76 0
-179 71 0
-179 -31 0
-179 58 0
179 7 72 -100 92 25 40 -76 -71 31 -58 0
-180 5 0
-180 30 0
-180 47 0
-180 -6 0
-180 25 0
-180 11 0
-180 70 0
-180 99 0
-180 -16 0
-180 -57 0
180 -5 -30 -47 6 -25 -11 -70 -99 16 57 0
171 172 173 174 175 176 177 178 179 180 0
-181 -72 0
-181 -85 0
-181 -9 0
-181 25 0
-181 49 0
-181 -17 0
-181 -61 0
-181 -77 0
-181 -35 0
-181 32 0
181 72 85 9 -25 -49 17 61 77 35 -32 0
-182 -61 0
-182 50 0
-182 84 0
-182 79 0
-182 45 0
-182 -18 0
-182 -13 0
-182 -29 0
-182 -49 0
-182 -86 0
182 61 -50 -84 -79 -45 18 13 29 49 86 0
-183 85 0
-183 55 0
-183 -99 0
-183 76 0
-183 89 0
-183 13 0
-183 -83 0
-183 -38 0
-183 -18 0
-183 62 0
183 -85 -55 99 -76 -89 -13 83 38 18 -62 0
-184 100 0
-184 77 0
-184 -85 0
-184 -23 0
-184 -13 0
-184 14 0
-184 -29 0
-184 96 0
-184 -89 0
-184 74 0
184 -100 -77 85 23 13 -14 29 -96 89 -74 0
-185 -87 0
-185 -77 0
-185 -9 0
-185 -31 0
-185 69 0
-185 -18 0
-185 94 0
-185 88 0
-185 59 0
-185 47 0
185 87 77 9 31 -69 18 -94 -88 -59 -47 0
-186 64 0
-186 -41 0
-186 93 0
-186 -68 0
-186 -31 0
-186 -79 0
-186 6 0
-186 -37 0
-186 17 0
-186 48 0
186 -64 41 -93 68 31 79 -6 37 -17 -48 0
-187 2 0
-187 23 0
-187 5 0
-187 -45 0
-187 -60 0
-187 73 0
-187 13 0
-187 -21 0
-187 56 0
-187 -59 0
187 -2 -23 -5 45 60 -73 -13 21 -56 59 0
-188 77 0
-188 4 0
-188 98 0
-188 57 0
-188 -6 0
-188 -69 0
-188 84 0
-188 13 0
-188 -91 0
-188 -51 0
188 -77 -4 -98 -57 6 69 -84 -13 91 51 0
-189 15 0
-189 96 0
-189 -26 0
-189 -8 0
-189 67 0
-189 76 0
-189 31 0
-189 -68 0
-189 82 0
-189 -53 0
189 -15 -96 26 8 -67 -76 -31 68 -82 53 0
-190 -79 0
-190 39 0
-190 -4 0
-190 -47 0
-190 94 0
-190 -50 0
-190 -85 0
-190 -41 0
-190 -18 0
-190 -21 0
190 79 -39 4 47 -94 50 85 41 18 21 0
181 182 183 184 185 186 187 188 189 190 0
-191 -90 0
-191 -73 0
-191 99 0
-191 -14 0
-191 24 0
-191 3 0
-191 83 0
-191 -88 0
-191 -100 0
-191 44 0
191 90 73 -99 14 -24 -3 -83 88 100 -44 0
-192 -99 0
-192 -94 0
-192 93 0
-192 -97 0
-192 -40 0
-192 20 0
-192 54 0
-192 -17 0
-192 -98 0
-192 88 0
192 99 94 -93 97 40 -20 -54 17 98 -88 0
-193 -67 0
-193 52 0
-193 15 0
-193 68 0
-193 4 0
-193 -99 0
-193 -18 0
-193 -22 0
-193 -84 0
-193 -78 0
193 67 -52 -15 -68 -4 99 18 22 84 78 0
-194 -13 0
-194 30 0
-194 87 0
-194 60 0
-194 -90 0
-194 71 0
-194 59 0
-194 42 0
-194 -17 0
-194 36 0
194 13 -30 -87 -60 90 -71 -59 -42 17 -36 0
-195 -82 0
-195 -31 0
-195 44 0
-195 25 0
-195 -94 0
-195 81 0
-195 61 0
-195 -47 0
-195 -20 0
-195 -99 0
195 82 31 -44 -25 94 -81 -61 47 20 99 0
-196 -51 0
-196 23 0
-196 -69 0
-196 32 0
-196 85 0
-196 18 0
-196 83 0
-196 -58 0
-196 -57 0
-196 29 0
196 51 -23 69 -32 -85 -18 -83 58 57 -29 0
-197 -72 0
-197 -84 0
-197 66 0
-197 15 0
-197 13 0
-197 25 0
-197 -5 0
-197 -6 0
-197 24 0
-197 76 0
197 72 84 -66 -15 -13 -25 5 6 -24 -76 0
-198 7 0
-198 97 0
-198 -39 0
-198 50 0
-198 -65 0
-198 69 0
-198 -30 0
-198 17 0
-198 66 0
-198 62 0
198 -7 -97 39 -50 65 -69 30 -17 -66 -62 0
-199 7 0
-199 88 0
-199 -33 0
-199 94 0
-199 41 0
-199 -12 0
-199 -19 0
-199 -78 0
-199 -16 0
-199 -100 0
199 -7 -88 33 -94 -41 12 19 78 16 100 0
-200 -20 0
-200 42 0
-200 71 0
-200 -61 0
-200 -39 0
-200 -45 0
-200 -38 0
-200 82 0
-200 97 0
-200 74 0
200 20 -42 -71 61 39 45 38 -82 -97 -74 0
191 192 193 194 195 196 197 198 199 200 0
